13,6	0,0	17,1	13,8	0,0	0,0	0,0	0,0	0,0	12,3
18,8	5,6	0,0	16,9	14,7	0,0	0,0	7,4	0,0	0,0
0,0	0,0	11,8	0,0	19,4	14,2	0,0	0,0	19,7	0,0
19,4	0,0	12,1	0,0	0,0	0,0	19,4	0,0	0,0	0,0
0,0	17,1	0,0	16,2	6,5	0,0	0,0	16,8	0,0	0,0
0,0	11,6	19,6	0,0	19,1	19,8	0,0	0,0	9,4	0,0
0,0	16,0	0,0	11,9	0,0	0,0	10,0	0,0	0,0	16,6
13,6	0,0	8,7	0,0	0,0	0,0	0,0	0,0	0,0	12,0
0,0	7,2	0,0	16,8	19,2	0,0	0,0	10,3	0,0	0,0
0,0	0,0	17,5	0,0	0,0	6,4	5,1	0,0	0,0	11,0
									
2,7	3,2	3,5	4,4	3,9	3,4	3,2	4,8	4,1	4,6
